c 161_3_checker_6cl.cnf
c
c field = 161
c formula set type = 3_checker_6cl
c
p cnf 6 54
314 
316 
318 
-313 
-310 
-322 
315 
317 
319 
-312 
-311 
-323 
314 
316 
318 
-323 
-312 
-324 
315 
317 
319 
-322 
-313 
-325 
316 
318 
322 
-315 
-312 
-324 
317 
319 
323 
-314 
-313 
-325 
316 
318 
322 
-325 
-314 
-326 
317 
319 
323 
-324 
-315 
-327 
318 
322 
324 
-317 
-314 
-326 
319 
323 
325 
-316 
-315 
-327 
318 
322 
324 
-327 
-316 
-328 
319 
323 
325 
-326 
-317 
-329 
322 
324 
326 
-319 
-316 
-328 
323 
325 
327 
-318 
-317 
-329 
230 
260 
290 
-201 
-170 
-350 
231 
261 
291 
-200 
-171 
-351 
230 
260 
290 
-351 
-200 
-380 
231 
261 
291 
-350 
-201 
-381 
260 
290 
350 
-231 
-200 
-380 
261 
291 
351 
-230 
-201 
-381 
260 
290 
350 
-381 
-230 
-410 
261 
291 
351 
-380 
-231 
-411 
290 
350 
380 
-261 
-230 
-410 
291 
351 
381 
-260 
-231 
-411 
290 
350 
380 
-411 
-260 
-440 
291 
351 
381 
-410 
-261 
-441 
350 
380 
410 
-291 
-260 
-440 
351 
381 
411 
-290 
-261 
-441 
224 
256 
288 
-193 
-160 
-352 
225 
257 
289 
-192 
-161 
-353 
224 
256 
288 
-353 
-192 
-384 
225 
257 
289 
-352 
-193 
-385 
256 
288 
352 
-225 
-192 
-384 
257 
289 
353 
-224 
-193 
-385 
256 
288 
352 
-385 
-224 
-416 
257 
289 
353 
-384 
-225 
-417 
288 
352 
384 
-257 
-224 
-416 
289 
353 
385 
-256 
-225 
-417 
288 
352 
384 
-417 
-256 
-448 
289 
353 
385 
-416 
-257 
-449 
352 
384 
416 
-289 
-256 
-448 
353 
385 
417 
-288 
-257 
-449 
236 
264 
292 
-349 
-208 
-376 
237 
265 
293 
-348 
-209 
-377 
264 
292 
348 
-237 
-208 
-376 
265 
293 
349 
-236 
-209 
-377 
264 
292 
348 
-377 
-236 
-404 
265 
293 
349 
-376 
-237 
-405 
292 
348 
376 
-265 
-236 
-404 
293 
349 
377 
-264 
-237 
-405 
292 
348 
376 
-405 
-264 
-432 
293 
349 
377 
-404 
-265 
-433 
348 
376 
404 
-293 
-264 
-432 
349 
377 
405 
-292 
-265 
-433 
